NAME 
OBJSENSE MAX
ROWS
 N  OBJ
 L  packing[0]
 L  packing[1]
 L  packing[2]
 L  packing[3]
 L  packing[4]
 L  packing[5]
 L  packing[6]
 L  packing[7]
 L  packing[8]
 L  packing[9]
 L  packing[10]
 L  packing[11]
 L  packing[12]
 L  packing[13]
 L  packing[14]
 L  packing[15]
 L  packing[16]
 L  packing[17]
 L  packing[18]
 L  packing[19]
 L  packing[20]
 L  packing[21]
 L  packing[22]
 L  packing[23]
 L  packing[24]
 L  packing[25]
 L  packing[26]
 L  packing[27]
 L  packing[28]
 L  packing[29]
 L  packing[30]
 L  packing[31]
 L  packing[32]
 L  packing[33]
 L  packing[34]
 L  packing[35]
 L  packing[36]
 L  packing[37]
 L  packing[38]
 L  packing[39]
 L  packing[40]
 L  packing[41]
 L  packing[42]
 L  packing[43]
 L  packing[44]
 L  packing[45]
 L  packing[46]
 L  packing[47]
 L  packing[48]
 L  packing[49]
 L  R51     
COLUMNS
    MARKER    'MARKER'                 'INTORG'
    x[1]      OBJ       116
    x[1]      packing[0]  135
    x[1]      packing[1]  14
    x[1]      packing[2]  118
    x[1]      packing[4]  172
    x[1]      packing[5]  64
    x[1]      packing[6]  73
    x[1]      packing[7]  190
    x[1]      packing[8]  125
    x[1]      packing[9]  164
    x[1]      packing[10]  196
    x[1]      packing[11]  30
    x[1]      packing[13]  102
    x[1]      packing[14]  191
    x[1]      packing[16]  93
    x[1]      packing[17]  137
    x[1]      packing[18]  32
    x[1]      packing[20]  97
    x[1]      packing[21]  38
    x[1]      packing[22]  17
    x[1]      packing[26]  51
    x[1]      packing[27]  52
    x[1]      packing[28]  140
    x[1]      packing[29]  37
    x[1]      packing[30]  62
    x[1]      packing[32]  120
    x[1]      packing[33]  82
    x[1]      packing[35]  69
    x[1]      packing[37]  138
    x[1]      packing[38]  167
    x[1]      packing[39]  158
    x[1]      packing[41]  170
    x[1]      packing[42]  129
    x[1]      packing[43]  126
    x[1]      packing[44]  114
    x[1]      packing[45]  50
    x[1]      packing[46]  99
    x[1]      packing[48]  75
    x[1]      packing[49]  129
    x[2]      OBJ       98
    x[2]      packing[0]  54
    x[2]      packing[2]  48
    x[2]      packing[3]  170
    x[2]      packing[4]  46
    x[2]      packing[5]  159
    x[2]      packing[6]  1
    x[2]      packing[8]  102
    x[2]      packing[9]  77
    x[2]      packing[13]  131
    x[2]      packing[14]  125
    x[2]      packing[15]  38
    x[2]      packing[18]  80
    x[2]      packing[19]  121
    x[2]      packing[20]  162
    x[2]      packing[21]  132
    x[2]      packing[22]  22
    x[2]      packing[23]  109
    x[2]      packing[24]  66
    x[2]      packing[25]  59
    x[2]      packing[26]  120
    x[2]      packing[28]  121
    x[2]      packing[30]  20
    x[2]      packing[31]  152
    x[2]      packing[34]  64
    x[2]      packing[35]  148
    x[2]      packing[37]  190
    x[2]      packing[39]  4
    x[2]      packing[41]  103
    x[2]      packing[42]  194
    x[2]      packing[43]  4
    x[2]      packing[44]  76
    x[2]      packing[45]  170
    x[2]      packing[46]  116
    x[2]      packing[47]  150
    x[2]      packing[48]  184
    x[2]      packing[49]  26
    x[3]      OBJ       98
    x[3]      packing[0]  166
    x[3]      packing[1]  61
    x[3]      packing[2]  41
    x[3]      packing[3]  143
    x[3]      packing[4]  122
    x[3]      packing[6]  70
    x[3]      packing[8]  117
    x[3]      packing[9]  79
    x[3]      packing[10]  134
    x[3]      packing[11]  69
    x[3]      packing[12]  144
    x[3]      packing[13]  86
    x[3]      packing[15]  148
    x[3]      packing[16]  39
    x[3]      packing[17]  85
    x[3]      packing[18]  173
    x[3]      packing[19]  23
    x[3]      packing[21]  45
    x[3]      packing[22]  4
    x[3]      packing[24]  194
    x[3]      packing[26]  2
    x[3]      packing[28]  183
    x[3]      packing[29]  136
    x[3]      packing[30]  192
    x[3]      packing[31]  143
    x[3]      packing[32]  120
    x[3]      packing[33]  143
    x[3]      packing[35]  29
    x[3]      packing[37]  169
    x[3]      packing[38]  23
    x[3]      packing[39]  87
    x[3]      packing[40]  126
    x[3]      packing[42]  161
    x[3]      packing[43]  150
    x[3]      packing[44]  182
    x[3]      packing[46]  113
    x[3]      packing[47]  70
    x[3]      packing[48]  152
    x[4]      OBJ       63
    x[4]      packing[0]  118
    x[4]      packing[1]  164
    x[4]      packing[2]  84
    x[4]      packing[4]  53
    x[4]      packing[5]  101
    x[4]      packing[6]  120
    x[4]      packing[7]  79
    x[4]      packing[8]  18
    x[4]      packing[9]  57
    x[4]      packing[11]  165
    x[4]      packing[12]  90
    x[4]      packing[13]  198
    x[4]      packing[14]  126
    x[4]      packing[15]  35
    x[4]      packing[17]  49
    x[4]      packing[18]  138
    x[4]      packing[19]  114
    x[4]      packing[20]  168
    x[4]      packing[21]  167
    x[4]      packing[23]  7
    x[4]      packing[24]  11
    x[4]      packing[25]  117
    x[4]      packing[27]  73
    x[4]      packing[31]  42
    x[4]      packing[32]  18
    x[4]      packing[33]  19
    x[4]      packing[34]  168
    x[4]      packing[35]  84
    x[4]      packing[36]  114
    x[4]      packing[37]  136
    x[4]      packing[38]  184
    x[4]      packing[39]  117
    x[4]      packing[40]  73
    x[4]      packing[41]  31
    x[4]      packing[42]  31
    x[4]      packing[44]  132
    x[4]      packing[45]  198
    x[4]      packing[47]  150
    x[4]      packing[49]  58
    x[5]      OBJ       17
    x[5]      packing[0]  81
    x[5]      packing[1]  178
    x[5]      packing[4]  54
    x[5]      packing[5]  23
    x[5]      packing[6]  180
    x[5]      packing[8]  137
    x[5]      packing[9]  174
    x[5]      packing[11]  103
    x[5]      packing[13]  186
    x[5]      packing[15]  133
    x[5]      packing[16]  46
    x[5]      packing[17]  7
    x[5]      packing[18]  4
    x[5]      packing[19]  11
    x[5]      packing[23]  62
    x[5]      packing[25]  3
    x[5]      packing[26]  178
    x[5]      packing[27]  32
    x[5]      packing[28]  23
    x[5]      packing[31]  143
    x[5]      packing[32]  170
    x[5]      packing[33]  141
    x[5]      packing[34]  161
    x[5]      packing[36]  21
    x[5]      packing[37]  174
    x[5]      packing[38]  117
    x[5]      packing[39]  176
    x[5]      packing[40]  17
    x[5]      packing[42]  143
    x[5]      packing[43]  127
    x[5]      packing[44]  130
    x[5]      packing[45]  65
    x[5]      packing[48]  185
    x[6]      OBJ       141
    x[6]      packing[0]  83
    x[6]      packing[1]  136
    x[6]      packing[2]  140
    x[6]      packing[3]  183
    x[6]      packing[4]  41
    x[6]      packing[5]  190
    x[6]      packing[6]  125
    x[6]      packing[7]  132
    x[6]      packing[9]  103
    x[6]      packing[11]  1
    x[6]      packing[13]  165
    x[6]      packing[14]  198
    x[6]      packing[16]  109
    x[6]      packing[17]  63
    x[6]      packing[18]  36
    x[6]      packing[19]  155
    x[6]      packing[20]  50
    x[6]      packing[21]  174
    x[6]      packing[22]  68
    x[6]      packing[24]  125
    x[6]      packing[25]  7
    x[6]      packing[27]  122
    x[6]      packing[30]  184
    x[6]      packing[31]  46
    x[6]      packing[32]  42
    x[6]      packing[33]  29
    x[6]      packing[34]  104
    x[6]      packing[35]  168
    x[6]      packing[36]  158
    x[6]      packing[37]  176
    x[6]      packing[38]  55
    x[6]      packing[40]  23
    x[6]      packing[41]  111
    x[6]      packing[44]  157
    x[6]      packing[45]  131
    x[6]      packing[46]  20
    x[6]      packing[47]  53
    x[6]      packing[48]  43
    x[6]      R51       1
    x[7]      OBJ       144
    x[7]      packing[0]  40
    x[7]      packing[1]  174
    x[7]      packing[2]  51
    x[7]      packing[3]  4
    x[7]      packing[4]  38
    x[7]      packing[5]  28
    x[7]      packing[8]  131
    x[7]      packing[10]  75
    x[7]      packing[12]  161
    x[7]      packing[13]  34
    x[7]      packing[14]  1
    x[7]      packing[15]  195
    x[7]      packing[16]  123
    x[7]      packing[17]  53
    x[7]      packing[18]  129
    x[7]      packing[20]  53
    x[7]      packing[21]  162
    x[7]      packing[22]  145
    x[7]      packing[23]  71
    x[7]      packing[26]  184
    x[7]      packing[27]  152
    x[7]      packing[28]  129
    x[7]      packing[29]  173
    x[7]      packing[30]  195
    x[7]      packing[31]  15
    x[7]      packing[32]  91
    x[7]      packing[33]  23
    x[7]      packing[34]  143
    x[7]      packing[36]  134
    x[7]      packing[37]  46
    x[7]      packing[38]  37
    x[7]      packing[40]  165
    x[7]      packing[41]  53
    x[7]      packing[42]  130
    x[7]      packing[43]  95
    x[7]      packing[44]  165
    x[7]      packing[45]  14
    x[7]      packing[46]  162
    x[7]      packing[47]  175
    x[7]      packing[48]  131
    x[7]      packing[49]  170
    x[8]      OBJ       110
    x[8]      packing[0]  69
    x[8]      packing[1]  61
    x[8]      packing[2]  34
    x[8]      packing[3]  172
    x[8]      packing[4]  45
    x[8]      packing[5]  166
    x[8]      packing[6]  172
    x[8]      packing[7]  19
    x[8]      packing[8]  119
    x[8]      packing[10]  48
    x[8]      packing[11]  6
    x[8]      packing[13]  13
    x[8]      packing[14]  183
    x[8]      packing[15]  172
    x[8]      packing[18]  180
    x[8]      packing[19]  131
    x[8]      packing[20]  101
    x[8]      packing[21]  92
    x[8]      packing[23]  126
    x[8]      packing[24]  62
    x[8]      packing[25]  164
    x[8]      packing[26]  196
    x[8]      packing[27]  91
    x[8]      packing[28]  29
    x[8]      packing[30]  172
    x[8]      packing[31]  53
    x[8]      packing[34]  70
    x[8]      packing[35]  125
    x[8]      packing[36]  173
    x[8]      packing[38]  17
    x[8]      packing[44]  89
    x[8]      packing[46]  101
    x[8]      packing[47]  92
    x[8]      packing[48]  123
    x[8]      packing[49]  9
    x[8]      R51       1
    x[9]      OBJ       27
    x[9]      packing[0]  159
    x[9]      packing[1]  137
    x[9]      packing[2]  114
    x[9]      packing[3]  87
    x[9]      packing[5]  38
    x[9]      packing[6]  110
    x[9]      packing[7]  50
    x[9]      packing[8]  165
    x[9]      packing[9]  89
    x[9]      packing[11]  66
    x[9]      packing[12]  45
    x[9]      packing[13]  102
    x[9]      packing[14]  103
    x[9]      packing[15]  115
    x[9]      packing[16]  99
    x[9]      packing[17]  54
    x[9]      packing[18]  93
    x[9]      packing[20]  192
    x[9]      packing[21]  139
    x[9]      packing[22]  58
    x[9]      packing[23]  119
    x[9]      packing[24]  10
    x[9]      packing[25]  89
    x[9]      packing[26]  145
    x[9]      packing[30]  180
    x[9]      packing[31]  94
    x[9]      packing[32]  147
    x[9]      packing[33]  133
    x[9]      packing[34]  19
    x[9]      packing[35]  48
    x[9]      packing[36]  191
    x[9]      packing[37]  84
    x[9]      packing[38]  90
    x[9]      packing[40]  93
    x[9]      packing[41]  59
    x[9]      packing[42]  68
    x[9]      packing[43]  131
    x[9]      packing[44]  42
    x[9]      packing[45]  51
    x[9]      packing[46]  82
    x[9]      packing[47]  113
    x[9]      packing[48]  185
    x[10]     OBJ       18
    x[10]     packing[0]  108
    x[10]     packing[1]  188
    x[10]     packing[2]  180
    x[10]     packing[3]  108
    x[10]     packing[4]  67
    x[10]     packing[5]  144
    x[10]     packing[6]  78
    x[10]     packing[7]  148
    x[10]     packing[12]  50
    x[10]     packing[14]  90
    x[10]     packing[15]  125
    x[10]     packing[17]  53
    x[10]     packing[18]  178
    x[10]     packing[19]  170
    x[10]     packing[21]  49
    x[10]     packing[22]  51
    x[10]     packing[23]  175
    x[10]     packing[25]  52
    x[10]     packing[26]  38
    x[10]     packing[28]  113
    x[10]     packing[29]  149
    x[10]     packing[30]  89
    x[10]     packing[33]  173
    x[10]     packing[35]  120
    x[10]     packing[36]  56
    x[10]     packing[38]  156
    x[10]     packing[39]  11
    x[10]     packing[40]  172
    x[10]     packing[42]  184
    x[10]     packing[43]  101
    x[10]     packing[45]  189
    x[10]     packing[47]  172
    x[10]     packing[48]  113
    x[10]     packing[49]  126
    x[11]     OBJ       72
    x[11]     packing[0]  190
    x[11]     packing[2]  65
    x[11]     packing[3]  70
    x[11]     packing[5]  170
    x[11]     packing[6]  110
    x[11]     packing[8]  180
    x[11]     packing[9]  78
    x[11]     packing[10]  188
    x[11]     packing[11]  193
    x[11]     packing[13]  32
    x[11]     packing[16]  52
    x[11]     packing[19]  199
    x[11]     packing[20]  35
    x[11]     packing[21]  49
    x[11]     packing[22]  133
    x[11]     packing[23]  100
    x[11]     packing[24]  139
    x[11]     packing[25]  19
    x[11]     packing[26]  127
    x[11]     packing[27]  86
    x[11]     packing[28]  57
    x[11]     packing[30]  188
    x[11]     packing[32]  47
    x[11]     packing[33]  133
    x[11]     packing[34]  97
    x[11]     packing[35]  38
    x[11]     packing[37]  137
    x[11]     packing[38]  134
    x[11]     packing[39]  31
    x[11]     packing[40]  99
    x[11]     packing[42]  160
    x[11]     packing[43]  147
    x[11]     packing[44]  44
    x[11]     packing[45]  54
    x[11]     packing[47]  70
    x[11]     packing[48]  123
    x[11]     packing[49]  181
    x[12]     OBJ       165
    x[12]     packing[0]  161
    x[12]     packing[1]  91
    x[12]     packing[2]  29
    x[12]     packing[3]  114
    x[12]     packing[4]  107
    x[12]     packing[5]  26
    x[12]     packing[6]  96
    x[12]     packing[7]  116
    x[12]     packing[8]  105
    x[12]     packing[10]  127
    x[12]     packing[12]  13
    x[12]     packing[14]  112
    x[12]     packing[15]  167
    x[12]     packing[16]  181
    x[12]     packing[17]  153
    x[12]     packing[18]  12
    x[12]     packing[19]  117
    x[12]     packing[20]  110
    x[12]     packing[21]  40
    x[12]     packing[23]  183
    x[12]     packing[25]  132
    x[12]     packing[26]  158
    x[12]     packing[29]  154
    x[12]     packing[30]  156
    x[12]     packing[31]  188
    x[12]     packing[32]  40
    x[12]     packing[33]  78
    x[12]     packing[34]  99
    x[12]     packing[35]  134
    x[12]     packing[36]  192
    x[12]     packing[37]  162
    x[12]     packing[38]  68
    x[12]     packing[39]  162
    x[12]     packing[40]  1
    x[12]     packing[41]  183
    x[12]     packing[43]  127
    x[12]     packing[44]  31
    x[12]     packing[45]  89
    x[12]     packing[47]  139
    x[12]     packing[48]  103
    x[12]     R51       1
    x[13]     OBJ       110
    x[13]     packing[0]  7
    x[13]     packing[2]  137
    x[13]     packing[3]  60
    x[13]     packing[4]  9
    x[13]     packing[5]  183
    x[13]     packing[7]  24
    x[13]     packing[8]  124
    x[13]     packing[9]  110
    x[13]     packing[10]  86
    x[13]     packing[11]  41
    x[13]     packing[12]  18
    x[13]     packing[14]  69
    x[13]     packing[16]  188
    x[13]     packing[19]  42
    x[13]     packing[21]  171
    x[13]     packing[23]  61
    x[13]     packing[24]  24
    x[13]     packing[27]  196
    x[13]     packing[29]  120
    x[13]     packing[30]  105
    x[13]     packing[31]  61
    x[13]     packing[32]  133
    x[13]     packing[33]  34
    x[13]     packing[35]  120
    x[13]     packing[37]  170
    x[13]     packing[38]  152
    x[13]     packing[39]  20
    x[13]     packing[40]  131
    x[13]     packing[41]  118
    x[13]     packing[42]  110
    x[13]     packing[44]  3
    x[13]     packing[45]  171
    x[13]     packing[46]  70
    x[13]     packing[48]  61
    x[13]     packing[49]  196
    x[14]     OBJ       187
    x[14]     packing[0]  86
    x[14]     packing[1]  1
    x[14]     packing[2]  164
    x[14]     packing[4]  12
    x[14]     packing[5]  59
    x[14]     packing[6]  118
    x[14]     packing[7]  84
    x[14]     packing[8]  103
    x[14]     packing[9]  172
    x[14]     packing[11]  160
    x[14]     packing[13]  141
    x[14]     packing[14]  28
    x[14]     packing[15]  85
    x[14]     packing[17]  171
    x[14]     packing[18]  11
    x[14]     packing[19]  99
    x[14]     packing[20]  5
    x[14]     packing[21]  126
    x[14]     packing[23]  6
    x[14]     packing[24]  161
    x[14]     packing[25]  154
    x[14]     packing[27]  93
    x[14]     packing[29]  2
    x[14]     packing[31]  154
    x[14]     packing[32]  21
    x[14]     packing[33]  3
    x[14]     packing[34]  91
    x[14]     packing[35]  18
    x[14]     packing[37]  168
    x[14]     packing[38]  99
    x[14]     packing[39]  137
    x[14]     packing[41]  158
    x[14]     packing[42]  173
    x[14]     packing[43]  127
    x[14]     packing[44]  53
    x[14]     packing[46]  29
    x[14]     packing[47]  63
    x[14]     packing[48]  56
    x[14]     R51       1
    x[15]     OBJ       165
    x[15]     packing[1]  46
    x[15]     packing[2]  104
    x[15]     packing[3]  102
    x[15]     packing[4]  71
    x[15]     packing[5]  2
    x[15]     packing[6]  21
    x[15]     packing[7]  119
    x[15]     packing[10]  23
    x[15]     packing[11]  36
    x[15]     packing[12]  198
    x[15]     packing[13]  85
    x[15]     packing[14]  12
    x[15]     packing[15]  125
    x[15]     packing[16]  110
    x[15]     packing[17]  181
    x[15]     packing[18]  102
    x[15]     packing[20]  154
    x[15]     packing[21]  83
    x[15]     packing[23]  34
    x[15]     packing[24]  113
    x[15]     packing[25]  9
    x[15]     packing[26]  39
    x[15]     packing[27]  186
    x[15]     packing[28]  193
    x[15]     packing[29]  197
    x[15]     packing[30]  164
    x[15]     packing[32]  199
    x[15]     packing[35]  137
    x[15]     packing[37]  161
    x[15]     packing[38]  163
    x[15]     packing[39]  78
    x[15]     packing[40]  74
    x[15]     packing[41]  119
    x[15]     packing[42]  132
    x[15]     packing[44]  157
    x[15]     packing[45]  61
    x[15]     packing[46]  182
    x[15]     packing[47]  124
    x[15]     packing[49]  8
    x[16]     OBJ       190
    x[16]     packing[0]  76
    x[16]     packing[1]  52
    x[16]     packing[3]  94
    x[16]     packing[4]  46
    x[16]     packing[5]  24
    x[16]     packing[9]  111
    x[16]     packing[10]  148
    x[16]     packing[11]  126
    x[16]     packing[12]  191
    x[16]     packing[13]  158
    x[16]     packing[14]  185
    x[16]     packing[16]  28
    x[16]     packing[19]  108
    x[16]     packing[20]  181
    x[16]     packing[23]  102
    x[16]     packing[24]  155
    x[16]     packing[26]  34
    x[16]     packing[27]  91
    x[16]     packing[28]  134
    x[16]     packing[30]  7
    x[16]     packing[31]  97
    x[16]     packing[32]  82
    x[16]     packing[33]  172
    x[16]     packing[34]  116
    x[16]     packing[35]  151
    x[16]     packing[36]  12
    x[16]     packing[37]  83
    x[16]     packing[38]  8
    x[16]     packing[39]  68
    x[16]     packing[42]  8
    x[16]     packing[44]  141
    x[16]     packing[45]  6
    x[16]     packing[46]  39
    x[16]     packing[47]  152
    x[16]     packing[49]  79
    x[16]     R51       1
    x[17]     OBJ       49
    x[17]     packing[0]  115
    x[17]     packing[1]  64
    x[17]     packing[2]  186
    x[17]     packing[4]  109
    x[17]     packing[5]  88
    x[17]     packing[6]  45
    x[17]     packing[7]  116
    x[17]     packing[8]  99
    x[17]     packing[9]  178
    x[17]     packing[10]  72
    x[17]     packing[12]  119
    x[17]     packing[13]  15
    x[17]     packing[14]  159
    x[17]     packing[15]  167
    x[17]     packing[16]  142
    x[17]     packing[17]  91
    x[17]     packing[18]  36
    x[17]     packing[19]  130
    x[17]     packing[20]  71
    x[17]     packing[21]  79
    x[17]     packing[22]  171
    x[17]     packing[23]  14
    x[17]     packing[24]  71
    x[17]     packing[26]  65
    x[17]     packing[28]  179
    x[17]     packing[29]  82
    x[17]     packing[30]  56
    x[17]     packing[31]  141
    x[17]     packing[32]  68
    x[17]     packing[33]  120
    x[17]     packing[34]  31
    x[17]     packing[35]  41
    x[17]     packing[36]  113
    x[17]     packing[37]  148
    x[17]     packing[39]  100
    x[17]     packing[40]  89
    x[17]     packing[42]  186
    x[17]     packing[43]  66
    x[17]     packing[44]  37
    x[17]     packing[45]  102
    x[17]     packing[48]  170
    x[17]     packing[49]  172
    x[18]     OBJ       161
    x[18]     packing[0]  192
    x[18]     packing[1]  188
    x[18]     packing[2]  77
    x[18]     packing[3]  92
    x[18]     packing[4]  29
    x[18]     packing[5]  49
    x[18]     packing[6]  44
    x[18]     packing[7]  141
    x[18]     packing[8]  39
    x[18]     packing[9]  164
    x[18]     packing[11]  4
    x[18]     packing[12]  56
    x[18]     packing[13]  73
    x[18]     packing[14]  86
    x[18]     packing[16]  74
    x[18]     packing[17]  166
    x[18]     packing[18]  129
    x[18]     packing[20]  199
    x[18]     packing[21]  195
    x[18]     packing[23]  33
    x[18]     packing[24]  73
    x[18]     packing[25]  62
    x[18]     packing[26]  14
    x[18]     packing[29]  133
    x[18]     packing[31]  79
    x[18]     packing[32]  115
    x[18]     packing[33]  127
    x[18]     packing[34]  42
    x[18]     packing[36]  142
    x[18]     packing[37]  59
    x[18]     packing[38]  50
    x[18]     packing[40]  2
    x[18]     packing[41]  74
    x[18]     packing[42]  93
    x[18]     packing[43]  152
    x[18]     packing[44]  181
    x[18]     packing[45]  15
    x[18]     packing[46]  115
    x[18]     packing[48]  39
    x[18]     packing[49]  164
    x[18]     R51       1
    x[19]     OBJ       96
    x[19]     packing[0]  100
    x[19]     packing[1]  110
    x[19]     packing[2]  8
    x[19]     packing[3]  165
    x[19]     packing[4]  127
    x[19]     packing[5]  91
    x[19]     packing[6]  84
    x[19]     packing[7]  31
    x[19]     packing[8]  168
    x[19]     packing[9]  15
    x[19]     packing[10]  34
    x[19]     packing[11]  178
    x[19]     packing[13]  55
    x[19]     packing[14]  22
    x[19]     packing[16]  111
    x[19]     packing[17]  4
    x[19]     packing[19]  47
    x[19]     packing[20]  118
    x[19]     packing[21]  50
    x[19]     packing[22]  170
    x[19]     packing[23]  190
    x[19]     packing[24]  180
    x[19]     packing[25]  65
    x[19]     packing[27]  143
    x[19]     packing[28]  197
    x[19]     packing[30]  153
    x[19]     packing[31]  37
    x[19]     packing[32]  57
    x[19]     packing[34]  18
    x[19]     packing[38]  122
    x[19]     packing[39]  52
    x[19]     packing[40]  5
    x[19]     packing[42]  135
    x[19]     packing[44]  84
    x[19]     packing[45]  35
    x[19]     packing[46]  77
    x[19]     packing[48]  147
    x[19]     packing[49]  45
    x[20]     OBJ       167
    x[20]     packing[1]  150
    x[20]     packing[2]  42
    x[20]     packing[3]  15
    x[20]     packing[4]  189
    x[20]     packing[5]  168
    x[20]     packing[6]  111
    x[20]     packing[8]  45
    x[20]     packing[9]  124
    x[20]     packing[11]  48
    x[20]     packing[12]  7
    x[20]     packing[14]  121
    x[20]     packing[15]  170
    x[20]     packing[16]  65
    x[20]     packing[17]  85
    x[20]     packing[18]  145
    x[20]     packing[20]  40
    x[20]     packing[22]  114
    x[20]     packing[23]  169
    x[20]     packing[25]  29
    x[20]     packing[26]  62
    x[20]     packing[27]  168
    x[20]     packing[28]  31
    x[20]     packing[29]  159
    x[20]     packing[30]  195
    x[20]     packing[31]  35
    x[20]     packing[32]  111
    x[20]     packing[35]  13
    x[20]     packing[37]  142
    x[20]     packing[38]  130
    x[20]     packing[39]  178
    x[20]     packing[42]  38
    x[20]     packing[43]  73
    x[20]     packing[44]  109
    x[20]     packing[45]  177
    x[20]     packing[47]  186
    x[20]     packing[49]  137
    x[20]     R51       1
    MARKER    'MARKER'                 'INTEND'
RHS
    RHS1      packing[0]  970
    RHS1      packing[1]  908
    RHS1      packing[2]  811
    RHS1      packing[3]  790
    RHS1      packing[4]  669
    RHS1      packing[5]  887
    RHS1      packing[6]  779
    RHS1      packing[7]  625
    RHS1      packing[8]  889
    RHS1      packing[9]  848
    RHS1      packing[10]  566
    RHS1      packing[11]  613
    RHS1      packing[12]  546
    RHS1      packing[13]  788
    RHS1      packing[14]  906
    RHS1      packing[15]  838
    RHS1      packing[16]  730
    RHS1      packing[17]  676
    RHS1      packing[18]  739
    RHS1      packing[19]  734
    RHS1      packing[20]  868
    RHS1      packing[21]  896
    RHS1      packing[22]  477
    RHS1      packing[23]  781
    RHS1      packing[24]  692
    RHS1      packing[25]  481
    RHS1      packing[26]  707
    RHS1      packing[27]  743
    RHS1      packing[28]  765
    RHS1      packing[29]  671
    RHS1      packing[30]  1059
    RHS1      packing[31]  740
    RHS1      packing[32]  791
    RHS1      packing[33]  705
    RHS1      packing[34]  612
    RHS1      packing[35]  722
    RHS1      packing[36]  653
    RHS1      packing[37]  1172
    RHS1      packing[38]  886
    RHS1      packing[39]  690
    RHS1      packing[40]  535
    RHS1      packing[41]  590
    RHS1      packing[42]  1038
    RHS1      packing[43]  713
    RHS1      packing[44]  964
    RHS1      packing[45]  789
    RHS1      packing[46]  603
    RHS1      packing[47]  855
    RHS1      packing[48]  945
    RHS1      packing[49]  750
    RHS1      R51       6
BOUNDS
 BV BND1      x[1]    
 BV BND1      x[2]    
 BV BND1      x[3]    
 BV BND1      x[4]    
 BV BND1      x[5]    
 BV BND1      x[6]    
 BV BND1      x[7]    
 BV BND1      x[8]    
 BV BND1      x[9]    
 BV BND1      x[10]   
 BV BND1      x[11]   
 BV BND1      x[12]   
 BV BND1      x[13]   
 BV BND1      x[14]   
 BV BND1      x[15]   
 BV BND1      x[16]   
 BV BND1      x[17]   
 BV BND1      x[18]   
 BV BND1      x[19]   
 BV BND1      x[20]   
ENDATA
